#model=macepolm
#opt(method=lbfgs,max_iter=100)
#device=cpu
#solv(implicit=water,method=alpb,provider=tblite,experimental=true)

0 1
C    0.0000    0.0000    0.0000
O    1.4300    0.0000    0.0000
H   -0.5400    0.9300    0.0000
H   -0.5400   -0.4650    0.8050
H   -0.5400   -0.4650   -0.8050
H    1.8000    0.7600    0.0000
O    2.8500    1.2500    0.0000
H    3.5000    0.5500    0.0000
H    3.3200    2.0900    0.0000
O    1.4000   -2.3500    0.0000
H    1.9000   -1.5200    0.0000
H    0.4800   -2.0800    0.0000
